100
1000
210
209
209
206
206
204
203
202
202
199
199
197
196
195
195
194
193
192
191
191
190
190
186
185
185
184
180
171
171
170
168
167
166
166
165
163
163
162
161
161
160
160
159
158
158
157
156
156
153
151
150
150
148
147
147
145
141
140
137
136
136
132
129
128
128
127
127
122
121
118
111
110
109
106
106
102
102
98
98
95
95
95
95
93
90
90
90
89
83
82
81
79
78
78
76
75
74
73
73
72
